letting n =  10
letting blocks =  [[1, 3], [1, 4], [1, 10], [2, 4], [2, 5], [2, 9], [3, 2], [3, 4], [3, 6], [3, 9], [4, 7], [4, 9], [4, 10], [5, 3], [5, 10], [6, 2], [6, 4], [6, 9], [7, 2], [7, 5], [7, 6], [7, 9], [8, 4], [8, 6], [9, 3], [9, 4], [10, 1], [10, 7]]
